g3 1 1 0	# problem DTLZ4
 12 0 3 0 0	# vars, constraints, objectives, ranges, eqns
 0 3	# nonlinear constraints, objectives
 0 0	# network constraints: nonlinear, linear
 0 12 0	# nonlinear vars in constraints, objectives, both
 0 0 0 1	# linear network variables; functions; arith, flags
 0 0 0 0 0	# discrete variables: binary, integer, nonlinear (b,c,o)
 0 35	# nonzeros in Jacobian, gradients
 0 0	# max name lengths: constraints, variables
 0 0 13 0 3	# common exprs: b,c,o,c1,o1
V12 0 0
o5
v0
n100
V13 0 0
o5
v1
n100
V14 0 0
o5
v2
n100
V15 0 0
o5
v3
n100
V16 0 0
o5
v4
n100
V17 0 0
o5
v5
n100
V18 0 0
o5
v6
n100
V19 0 0
o5
v7
n100
V20 0 0
o5
v8
n100
V21 0 0
o5
v9
n100
V22 0 0
o5
v10
n100
V23 0 0
o5
v11
n100
V24 0 0
o54
10
o5
o1
v14
n0.5
n2
o5
o1
v15
n0.5
n2
o5
o1
v16
n0.5
n2
o5
o1
v17
n0.5
n2
o5
o1
v18
n0.5
n2
o5
o1
v19
n0.5
n2
o5
o1
v20
n0.5
n2
o5
o1
v21
n0.5
n2
o5
o1
v22
n0.5
n2
o5
o1
v23
n0.5
n2
V25 0 1
o2
o0
n1
v24
o2
o46
o2
n1.5707963267948966
v12
o46
o2
n1.5707963267948966
v13
O0 0
v25
V26 0 2
o2
o2
o0
n1
v24
o46
o2
n1.5707963267948966
v12
o41
o2
n1.5707963267948966
v13
O1 0
v26
V27 0 3
o2
o2
o0
n1
v24
n1
o41
o2
n1.5707963267948966
v12
O2 0
v27
b
0 0 1
0 0 1
0 0 1
0 0 1
0 0 1
0 0 1
0 0 1
0 0 1
0 0 1
0 0 1
0 0 1
0 0 1
k11
0
0
0
0
0
0
0
0
0
0
0
G0 12
0 0
1 0
2 0
3 0
4 0
5 0
6 0
7 0
8 0
9 0
10 0
11 0
G1 12
0 0
1 0
2 0
3 0
4 0
5 0
6 0
7 0
8 0
9 0
10 0
11 0
G2 11
0 0
2 0
3 0
4 0
5 0
6 0
7 0
8 0
9 0
10 0
11 0
